0 0 0 0
0 1 0 0
0 2 0 0
0 3 0 0
0 4 0 7
0 5 0 7
0 6 0 1
0 7 1 1
0 8 0 10
0 9 0 2
0 10 0 10
0 11 2 1
0 12 0 11
0 13 0 8
0 14 1 7
0 15 0 9
0 16 1 10
0 17 0 1
0 18 0 13
0 19 1 11
0 20 1 5
0 21 1 13
0 22 0 12
0 23 0 12
0 24 2 13
0 25 0 21
0 26 0 18
0 27 1 14
0 28 0 19
0 29 0 21
0 30 0 22
0 31 0 25
